data;
param n:=50;
param w:=1 -150 2 -131 3 -250 4 28 5 229 6 174 7 -121 8 11 9 192 10 -56 11 -179 12 -7 13 70 14 -157 15 -69 16 154 17 44 18 -143 19 -45 20 140 21 -117 22 232 23 -75 24 75 25 -181 26 39 27 -7 28 195 29 113 30 -107 31 -7 32 37 33 -89 34 -138 35 222 36 185 37 -76 38 5 39 -121 40 -74 41 65 42 99 43 156 44 -420 45 226 46 -40 47 -8 48 -178 49 42 50 213;
